Minimize
 obj: 0 xn_0 + 0 xn_1 + 0 xn_2 + 0 xn_3 + 0 xn_4 + 0 xn_5 + 0 xn_6 + 0 xn_7 + 0 xn_8 + 0 xn_9 + -1 xt1_0 + -1 xt1_1 + -1 xt1_2 + -1 xt1_3 + -1 xt1_4 + -1 xt1_5 + -1 xt1_6 + -1 xt1_7 + -1 xt1_8 + -1 xt1_9 + -1 xt1_10 + -1 xt1_11 + -1 xt1_12 + -1 xt1_13 + -1 xt1_14 + -1 xt1_15 + -1 xt1_16 + -1 xt1_17 + -1 xt1_18 + -1 xt1_19 + -1 xt1_20 + -1 xt1_21 + -1 xt1_22 + -1 xt1_23 + -1 xt1_24 + -1 xt1_25 + -1 xt1_26 + -1 xt1_27 + -1 xt1_28 + -1 xt1_29 + -1 xt1_30 + -1 xt1_31 + -1 xt1_32 + -1 xt1_33 + -1 xt1_34 + -1 xt1_35 + -1 xt1_36 + -1 xt1_37 + -1 xt1_38 + -1 xt1_39 + -1 xt1_40 + -1 xt1_41 + -1 xt1_42 + -1 xt1_43 + -1 xt1_44 + -1 xt1_45 + -1 xt1_46 + -1 xt1_47 + -1 xt1_48 + -1 xt1_49 + -1 xt1_50 + -1 xt1_51 + -1 xt1_52 + -1 xt1_53 + -1 xt1_54 + -1 xt1_55 + -1 xt1_56 + -1 xt1_57 + -1 xt1_58 + -1 xt1_59 + -1 xt1_60 + -1 xt1_61 + -1 xt1_62 + -1 xt1_63 + -1 xt1_64 + -1 xt1_65 + -1 xt1_66 + -1 xt1_67 + -1 xt1_68 + -1 xt1_69 + -2 xt2_0 + -2 xt2_1 + -2 xt2_2 + -2 xt2_3 + -2 xt2_4 + -2 xt2_5 + -2 xt2_6 + -2 xt2_7 + -2 xt2_8 + -2 xt2_9 + -2 xt2_10 + -2 xt2_11 + -2 xt2_12 + -2 xt2_13 + -2 xt2_14 + -2 xt2_15 + -2 xt2_16 + -2 xt2_17 + -2 xt2_18 + -2 xt2_19 + -2 xt2_20 + -2 xt2_21 + -2 xt2_22 + -2 xt2_23 + -2 xt2_24 + -2 xt2_25 + -2 xt2_26 + -2 xt2_27 + -2 xt2_28 + -2 xt2_29 + -2 xt2_30 + -2 xt2_31 + -2 xt2_32 + -2 xt2_33 + -2 xt2_34 + -2 xt2_35 + -2 xt2_36 + -2 xt2_37 + -2 xt2_38 + -2 xt2_39 + -2 xt2_40 + -2 xt2_41 + -2 xt2_42 + -2 xt2_43 + -2 xt2_44 + -2 xt2_45 + -2 xt2_46 + -2 xt2_47 + -2 xt2_48 + -2 xt2_49 + -2 xt2_50 + -2 xt2_51 + -2 xt2_52 + -2 xt2_53 + -2 xt2_54 + -2 xt2_55 + -2 xt2_56 + -2 xt2_57 + -2 xt2_58 + -2 xt2_59 + -2 xt2_60 + -2 xt2_61 + -2 xt2_62 + -2 xt2_63 + -2 xt2_64 + -2 xt2_65 + -2 xt2_66 + -2 xt2_67 + -2 xt2_68 + -2 xt2_69 + -3 xp0_0 + -2 xp0_1 + -1 xp0_2 + 0 xp0_3 + 1 xp0_4 + 2 xp0_5 + 3 xp0_6 + -3 xp0_7 + -2 xp0_8 + -1 xp0_9 + 0 xp0_10 + 1 xp0_11 + 2 xp0_12 + 3 xp0_13 + -3 xp0_14 + -2 xp0_15 + -1 xp0_16 + 0 xp0_17 + 1 xp0_18 + 2 xp0_19 + 3 xp0_20 + -3 xp0_21 + -2 xp0_22 + -1 xp0_23 + 0 xp0_24 + 1 xp0_25 + 2 xp0_26 + 3 xp0_27 + -3 xp0_28 + -2 xp0_29 + -1 xp0_30 + 0 xp0_31 + 1 xp0_32 + 2 xp0_33 + 3 xp0_34 + -3 xp0_35 + -2 xp0_36 + -1 xp0_37 + 0 xp0_38 + 1 xp0_39 + 2 xp0_40 + 3 xp0_41 + -3 xp0_42 + -2 xp0_43 + -1 xp0_44 + 0 xp0_45 + 1 xp0_46 + 2 xp0_47 + 3 xp0_48 + -3 xp0_49 + -2 xp0_50 + -1 xp0_51 + 0 xp0_52 + 1 xp0_53 + 2 xp0_54 + 3 xp0_55 + -3 xp0_56 + -2 xp0_57 + -1 xp0_58 + 0 xp0_59 + 1 xp0_60 + 2 xp0_61 + 3 xp0_62 + -3 xp0_63 + -2 xp0_64 + -1 xp0_65 + 0 xp0_66 + 1 xp0_67 + 2 xp0_68 + 3 xp0_69 + -3 xp1_0 + -2 xp1_1 + -1 xp1_2 + 0 xp1_3 + 1 xp1_4 + 2 xp1_5 + 3 xp1_6 + -3 xp1_7 + -2 xp1_8 + -1 xp1_9 + 0 xp1_10 + 1 xp1_11 + 2 xp1_12 + 3 xp1_13 + -3 xp1_14 + -2 xp1_15 + -1 xp1_16 + 0 xp1_17 + 1 xp1_18 + 2 xp1_19 + 3 xp1_20 + -3 xp1_21 + -2 xp1_22 + -1 xp1_23 + 0 xp1_24 + 1 xp1_25 + 2 xp1_26 + 3 xp1_27 + -3 xp1_28 + -2 xp1_29 + -1 xp1_30 + 0 xp1_31 + 1 xp1_32 + 2 xp1_33 + 3 xp1_34 + -3 xp1_35 + -2 xp1_36 + -1 xp1_37 + 0 xp1_38 + 1 xp1_39 + 2 xp1_40 + 3 xp1_41 + -3 xp1_42 + -2 xp1_43 + -1 xp1_44 + 0 xp1_45 + 1 xp1_46 + 2 xp1_47 + 3 xp1_48 + -3 xp1_49 + -2 xp1_50 + -1 xp1_51 + 0 xp1_52 + 1 xp1_53 + 2 xp1_54 + 3 xp1_55 + -3 xp1_56 + -2 xp1_57 + -1 xp1_58 + 0 xp1_59 + 1 xp1_60 + 2 xp1_61 + 3 xp1_62 + -3 xp1_63 + -2 xp1_64 + -1 xp1_65 + 0 xp1_66 + 1 xp1_67 + 2 xp1_68 + 3 xp1_69 + -500 y1
Subject To
 nglo: 1 xn_0 + 1 xn_1 + 1 xn_2 + 1 xn_3 + 1 xn_4 + 2 xn_5 + 2 xn_6 + 2 xn_7 + 2 xn_8 + 2 xn_9 + 0.5 y1 >= 4.6
 nghi: 1 xn_0 + 1 xn_1 + 1 xn_2 + 1 xn_3 + 1 xn_4 + 2 xn_5 + 2 xn_6 + 2 xn_7 + 2 xn_8 + 2 xn_9 + 0.5 y1 <= 5.4
 kt1: xt1_0 + xt1_1 + xt1_2 + xt1_3 + xt1_4 + xt1_5 + xt1_6 + xt1_7 + xt1_8 + xt1_9 + xt1_10 + xt1_11 + xt1_12 + xt1_13 + xt1_14 + xt1_15 + xt1_16 + xt1_17 + xt1_18 + xt1_19 + xt1_20 + xt1_21 + xt1_22 + xt1_23 + xt1_24 + xt1_25 + xt1_26 + xt1_27 + xt1_28 + xt1_29 + xt1_30 + xt1_31 + xt1_32 + xt1_33 + xt1_34 + xt1_35 + xt1_36 + xt1_37 + xt1_38 + xt1_39 + xt1_40 + xt1_41 + xt1_42 + xt1_43 + xt1_44 + xt1_45 + xt1_46 + xt1_47 + xt1_48 + xt1_49 + xt1_50 + xt1_51 + xt1_52 + xt1_53 + xt1_54 + xt1_55 + xt1_56 + xt1_57 + xt1_58 + xt1_59 + xt1_60 + xt1_61 + xt1_62 + xt1_63 + xt1_64 + xt1_65 + xt1_66 + xt1_67 + xt1_68 + xt1_69 <= 300
 ct1: xt1_0 + xt1_1 + xt1_2 + xt1_3 + xt1_4 + xt1_5 + xt1_6 + xt1_7 + xt1_8 + xt1_9 + xt1_10 + xt1_11 + xt1_12 + xt1_13 + xt1_14 + xt1_15 + xt1_16 + xt1_17 + xt1_18 + xt1_19 + xt1_20 + xt1_21 + xt1_22 + xt1_23 + xt1_24 + xt1_25 + xt1_26 + xt1_27 + xt1_28 + xt1_29 + xt1_30 + xt1_31 + xt1_32 + xt1_33 + xt1_34 + xt1_35 + xt1_36 + xt1_37 + xt1_38 + xt1_39 + xt1_40 + xt1_41 + xt1_42 + xt1_43 + xt1_44 + xt1_45 + xt1_46 + xt1_47 + xt1_48 + xt1_49 + xt1_50 + xt1_51 + xt1_52 + xt1_53 + xt1_54 + xt1_55 + xt1_56 + xt1_57 + xt1_58 + xt1_59 + xt1_60 + xt1_61 + xt1_62 + xt1_63 + xt1_64 + xt1_65 + xt1_66 + xt1_67 + xt1_68 + xt1_69 + 180 y1 <= 300
 kt2: xt2_0 + xt2_1 + xt2_2 + xt2_3 + xt2_4 + xt2_5 + xt2_6 + xt2_7 + xt2_8 + xt2_9 + xt2_10 + xt2_11 + xt2_12 + xt2_13 + xt2_14 + xt2_15 + xt2_16 + xt2_17 + xt2_18 + xt2_19 + xt2_20 + xt2_21 + xt2_22 + xt2_23 + xt2_24 + xt2_25 + xt2_26 + xt2_27 + xt2_28 + xt2_29 + xt2_30 + xt2_31 + xt2_32 + xt2_33 + xt2_34 + xt2_35 + xt2_36 + xt2_37 + xt2_38 + xt2_39 + xt2_40 + xt2_41 + xt2_42 + xt2_43 + xt2_44 + xt2_45 + xt2_46 + xt2_47 + xt2_48 + xt2_49 + xt2_50 + xt2_51 + xt2_52 + xt2_53 + xt2_54 + xt2_55 + xt2_56 + xt2_57 + xt2_58 + xt2_59 + xt2_60 + xt2_61 + xt2_62 + xt2_63 + xt2_64 + xt2_65 + xt2_66 + xt2_67 + xt2_68 + xt2_69 <= 280
 ct2: xt2_0 + xt2_1 + xt2_2 + xt2_3 + xt2_4 + xt2_5 + xt2_6 + xt2_7 + xt2_8 + xt2_9 + xt2_10 + xt2_11 + xt2_12 + xt2_13 + xt2_14 + xt2_15 + xt2_16 + xt2_17 + xt2_18 + xt2_19 + xt2_20 + xt2_21 + xt2_22 + xt2_23 + xt2_24 + xt2_25 + xt2_26 + xt2_27 + xt2_28 + xt2_29 + xt2_30 + xt2_31 + xt2_32 + xt2_33 + xt2_34 + xt2_35 + xt2_36 + xt2_37 + xt2_38 + xt2_39 + xt2_40 + xt2_41 + xt2_42 + xt2_43 + xt2_44 + xt2_45 + xt2_46 + xt2_47 + xt2_48 + xt2_49 + xt2_50 + xt2_51 + xt2_52 + xt2_53 + xt2_54 + xt2_55 + xt2_56 + xt2_57 + xt2_58 + xt2_59 + xt2_60 + xt2_61 + xt2_62 + xt2_63 + xt2_64 + xt2_65 + xt2_66 + xt2_67 + xt2_68 + xt2_69 + 140 y1 <= 280
 kp0: xp0_0 + xp0_1 + xp0_2 + xp0_3 + xp0_4 + xp0_5 + xp0_6 + xp0_7 + xp0_8 + xp0_9 + xp0_10 + xp0_11 + xp0_12 + xp0_13 + xp0_14 + xp0_15 + xp0_16 + xp0_17 + xp0_18 + xp0_19 + xp0_20 + xp0_21 + xp0_22 + xp0_23 + xp0_24 + xp0_25 + xp0_26 + xp0_27 + xp0_28 + xp0_29 + xp0_30 + xp0_31 + xp0_32 + xp0_33 + xp0_34 + xp0_35 + xp0_36 + xp0_37 + xp0_38 + xp0_39 + xp0_40 + xp0_41 + xp0_42 + xp0_43 + xp0_44 + xp0_45 + xp0_46 + xp0_47 + xp0_48 + xp0_49 + xp0_50 + xp0_51 + xp0_52 + xp0_53 + xp0_54 + xp0_55 + xp0_56 + xp0_57 + xp0_58 + xp0_59 + xp0_60 + xp0_61 + xp0_62 + xp0_63 + xp0_64 + xp0_65 + xp0_66 + xp0_67 + xp0_68 + xp0_69 <= 350
 wp0: 1 xp0_0 + 2 xp0_1 + 3 xp0_2 + 4 xp0_3 + 5 xp0_4 + 1 xp0_5 + 2 xp0_6 + 3 xp0_7 + 4 xp0_8 + 5 xp0_9 + 1 xp0_10 + 2 xp0_11 + 3 xp0_12 + 4 xp0_13 + 5 xp0_14 + 1 xp0_15 + 2 xp0_16 + 3 xp0_17 + 4 xp0_18 + 5 xp0_19 + 1 xp0_20 + 2 xp0_21 + 3 xp0_22 + 4 xp0_23 + 5 xp0_24 + 1 xp0_25 + 2 xp0_26 + 3 xp0_27 + 4 xp0_28 + 5 xp0_29 + 1 xp0_30 + 2 xp0_31 + 3 xp0_32 + 4 xp0_33 + 5 xp0_34 + 1 xp0_35 + 2 xp0_36 + 3 xp0_37 + 4 xp0_38 + 5 xp0_39 + 1 xp0_40 + 2 xp0_41 + 3 xp0_42 + 4 xp0_43 + 5 xp0_44 + 1 xp0_45 + 2 xp0_46 + 3 xp0_47 + 4 xp0_48 + 5 xp0_49 + 1 xp0_50 + 2 xp0_51 + 3 xp0_52 + 4 xp0_53 + 5 xp0_54 + 1 xp0_55 + 2 xp0_56 + 3 xp0_57 + 4 xp0_58 + 5 xp0_59 + 1 xp0_60 + 2 xp0_61 + 3 xp0_62 + 4 xp0_63 + 5 xp0_64 + 1 xp0_65 + 2 xp0_66 + 3 xp0_67 + 4 xp0_68 + 5 xp0_69 >= 460
 ep0: xp0_0 + xp0_1 + xp0_2 + xp0_3 + xp0_4 + xp0_5 + xp0_6 + xp0_7 + xp0_8 + xp0_9 + xp0_10 + xp0_11 + xp0_12 + xp0_13 + xp0_14 + xp0_15 + xp0_16 + xp0_17 + xp0_18 + xp0_19 + xp0_20 + xp0_21 + xp0_22 + xp0_23 + xp0_24 + xp0_25 + xp0_26 + xp0_27 + xp0_28 + xp0_29 + xp0_30 + xp0_31 + xp0_32 + xp0_33 + xp0_34 - xp0_35 - xp0_36 - xp0_37 - xp0_38 - xp0_39 - xp0_40 - xp0_41 - xp0_42 - xp0_43 - xp0_44 - xp0_45 - xp0_46 - xp0_47 - xp0_48 - xp0_49 - xp0_50 - xp0_51 - xp0_52 - xp0_53 - xp0_54 - xp0_55 - xp0_56 - xp0_57 - xp0_58 - xp0_59 - xp0_60 - xp0_61 - xp0_62 - xp0_63 - xp0_64 - xp0_65 - xp0_66 - xp0_67 - xp0_68 - xp0_69 = 0
 dp0: xp0_0 + xp0_1 + xp0_2 + xp0_3 + xp0_4 + xp0_5 + xp0_6 + xp0_7 + xp0_8 + xp0_9 + xp0_10 + xp0_11 + xp0_12 + xp0_13 + xp0_14 + xp0_15 + xp0_16 + xp0_17 + xp0_18 + xp0_19 + xp0_20 + xp0_21 + xp0_22 + xp0_23 + xp0_24 + xp0_25 + xp0_26 + xp0_27 + xp0_28 + xp0_29 + xp0_30 + xp0_31 + xp0_32 + xp0_33 + xp0_34 - xp0_35 - xp0_36 - xp0_37 - xp0_38 - xp0_39 - xp0_40 - xp0_41 - xp0_42 - xp0_43 - xp0_44 - xp0_45 - xp0_46 - xp0_47 - xp0_48 - xp0_49 - xp0_50 - xp0_51 - xp0_52 - xp0_53 - xp0_54 - xp0_55 - xp0_56 - xp0_57 - xp0_58 - xp0_59 - xp0_60 - xp0_61 - xp0_62 - xp0_63 - xp0_64 - xp0_65 - xp0_66 - xp0_67 - xp0_68 - xp0_69 <= 60
 kp1: xp1_0 + xp1_1 + xp1_2 + xp1_3 + xp1_4 + xp1_5 + xp1_6 + xp1_7 + xp1_8 + xp1_9 + xp1_10 + xp1_11 + xp1_12 + xp1_13 + xp1_14 + xp1_15 + xp1_16 + xp1_17 + xp1_18 + xp1_19 + xp1_20 + xp1_21 + xp1_22 + xp1_23 + xp1_24 + xp1_25 + xp1_26 + xp1_27 + xp1_28 + xp1_29 + xp1_30 + xp1_31 + xp1_32 + xp1_33 + xp1_34 + xp1_35 + xp1_36 + xp1_37 + xp1_38 + xp1_39 + xp1_40 + xp1_41 + xp1_42 + xp1_43 + xp1_44 + xp1_45 + xp1_46 + xp1_47 + xp1_48 + xp1_49 + xp1_50 + xp1_51 + xp1_52 + xp1_53 + xp1_54 + xp1_55 + xp1_56 + xp1_57 + xp1_58 + xp1_59 + xp1_60 + xp1_61 + xp1_62 + xp1_63 + xp1_64 + xp1_65 + xp1_66 + xp1_67 + xp1_68 + xp1_69 <= 350
 wp1: 1 xp1_0 + 2 xp1_1 + 3 xp1_2 + 4 xp1_3 + 5 xp1_4 + 1 xp1_5 + 2 xp1_6 + 3 xp1_7 + 4 xp1_8 + 5 xp1_9 + 1 xp1_10 + 2 xp1_11 + 3 xp1_12 + 4 xp1_13 + 5 xp1_14 + 1 xp1_15 + 2 xp1_16 + 3 xp1_17 + 4 xp1_18 + 5 xp1_19 + 1 xp1_20 + 2 xp1_21 + 3 xp1_22 + 4 xp1_23 + 5 xp1_24 + 1 xp1_25 + 2 xp1_26 + 3 xp1_27 + 4 xp1_28 + 5 xp1_29 + 1 xp1_30 + 2 xp1_31 + 3 xp1_32 + 4 xp1_33 + 5 xp1_34 + 1 xp1_35 + 2 xp1_36 + 3 xp1_37 + 4 xp1_38 + 5 xp1_39 + 1 xp1_40 + 2 xp1_41 + 3 xp1_42 + 4 xp1_43 + 5 xp1_44 + 1 xp1_45 + 2 xp1_46 + 3 xp1_47 + 4 xp1_48 + 5 xp1_49 + 1 xp1_50 + 2 xp1_51 + 3 xp1_52 + 4 xp1_53 + 5 xp1_54 + 1 xp1_55 + 2 xp1_56 + 3 xp1_57 + 4 xp1_58 + 5 xp1_59 + 1 xp1_60 + 2 xp1_61 + 3 xp1_62 + 4 xp1_63 + 5 xp1_64 + 1 xp1_65 + 2 xp1_66 + 3 xp1_67 + 4 xp1_68 + 5 xp1_69 >= 460
 ep1: xp1_0 + xp1_1 + xp1_2 + xp1_3 + xp1_4 + xp1_5 + xp1_6 + xp1_7 + xp1_8 + xp1_9 + xp1_10 + xp1_11 + xp1_12 + xp1_13 + xp1_14 + xp1_15 + xp1_16 + xp1_17 + xp1_18 + xp1_19 + xp1_20 + xp1_21 + xp1_22 + xp1_23 + xp1_24 + xp1_25 + xp1_26 + xp1_27 + xp1_28 + xp1_29 + xp1_30 + xp1_31 + xp1_32 + xp1_33 + xp1_34 - xp1_35 - xp1_36 - xp1_37 - xp1_38 - xp1_39 - xp1_40 - xp1_41 - xp1_42 - xp1_43 - xp1_44 - xp1_45 - xp1_46 - xp1_47 - xp1_48 - xp1_49 - xp1_50 - xp1_51 - xp1_52 - xp1_53 - xp1_54 - xp1_55 - xp1_56 - xp1_57 - xp1_58 - xp1_59 - xp1_60 - xp1_61 - xp1_62 - xp1_63 - xp1_64 - xp1_65 - xp1_66 - xp1_67 - xp1_68 - xp1_69 = 0
 dp1: xp1_0 + xp1_1 + xp1_2 + xp1_3 + xp1_4 + xp1_5 + xp1_6 + xp1_7 + xp1_8 + xp1_9 + xp1_10 + xp1_11 + xp1_12 + xp1_13 + xp1_14 + xp1_15 + xp1_16 + xp1_17 + xp1_18 + xp1_19 + xp1_20 + xp1_21 + xp1_22 + xp1_23 + xp1_24 + xp1_25 + xp1_26 + xp1_27 + xp1_28 + xp1_29 + xp1_30 + xp1_31 + xp1_32 + xp1_33 + xp1_34 - xp1_35 - xp1_36 - xp1_37 - xp1_38 - xp1_39 - xp1_40 - xp1_41 - xp1_42 - xp1_43 - xp1_44 - xp1_45 - xp1_46 - xp1_47 - xp1_48 - xp1_49 - xp1_50 - xp1_51 - xp1_52 - xp1_53 - xp1_54 - xp1_55 - xp1_56 - xp1_57 - xp1_58 - xp1_59 - xp1_60 - xp1_61 - xp1_62 - xp1_63 - xp1_64 - xp1_65 - xp1_66 - xp1_67 - xp1_68 - xp1_69 <= 60
Bounds
 0 <= xn_0 <= 1
 0 <= xn_1 <= 1
 0 <= xn_2 <= 1
 0 <= xn_3 <= 1
 0 <= xn_4 <= 1
 0 <= xn_5 <= 1
 0 <= xn_6 <= 1
 0 <= xn_7 <= 1
 0 <= xn_8 <= 1
 0 <= xn_9 <= 1
 0 <= xt1_0 <= 5
 0 <= xt1_1 <= 5
 0 <= xt1_2 <= 5
 0 <= xt1_3 <= 5
 0 <= xt1_4 <= 5
 0 <= xt1_5 <= 5
 0 <= xt1_6 <= 5
 0 <= xt1_7 <= 5
 0 <= xt1_8 <= 5
 0 <= xt1_9 <= 5
 0 <= xt1_10 <= 5
 0 <= xt1_11 <= 5
 0 <= xt1_12 <= 5
 0 <= xt1_13 <= 5
 0 <= xt1_14 <= 5
 0 <= xt1_15 <= 5
 0 <= xt1_16 <= 5
 0 <= xt1_17 <= 5
 0 <= xt1_18 <= 5
 0 <= xt1_19 <= 5
 0 <= xt1_20 <= 5
 0 <= xt1_21 <= 5
 0 <= xt1_22 <= 5
 0 <= xt1_23 <= 5
 0 <= xt1_24 <= 5
 0 <= xt1_25 <= 5
 0 <= xt1_26 <= 5
 0 <= xt1_27 <= 5
 0 <= xt1_28 <= 5
 0 <= xt1_29 <= 5
 0 <= xt1_30 <= 5
 0 <= xt1_31 <= 5
 0 <= xt1_32 <= 5
 0 <= xt1_33 <= 5
 0 <= xt1_34 <= 5
 0 <= xt1_35 <= 5
 0 <= xt1_36 <= 5
 0 <= xt1_37 <= 5
 0 <= xt1_38 <= 5
 0 <= xt1_39 <= 5
 0 <= xt1_40 <= 5
 0 <= xt1_41 <= 5
 0 <= xt1_42 <= 5
 0 <= xt1_43 <= 5
 0 <= xt1_44 <= 5
 0 <= xt1_45 <= 5
 0 <= xt1_46 <= 5
 0 <= xt1_47 <= 5
 0 <= xt1_48 <= 5
 0 <= xt1_49 <= 5
 0 <= xt1_50 <= 5
 0 <= xt1_51 <= 5
 0 <= xt1_52 <= 5
 0 <= xt1_53 <= 5
 0 <= xt1_54 <= 5
 0 <= xt1_55 <= 5
 0 <= xt1_56 <= 5
 0 <= xt1_57 <= 5
 0 <= xt1_58 <= 5
 0 <= xt1_59 <= 5
 0 <= xt1_60 <= 5
 0 <= xt1_61 <= 5
 0 <= xt1_62 <= 5
 0 <= xt1_63 <= 5
 0 <= xt1_64 <= 5
 0 <= xt1_65 <= 5
 0 <= xt1_66 <= 5
 0 <= xt1_67 <= 5
 0 <= xt1_68 <= 5
 0 <= xt1_69 <= 5
 0 <= xt2_0 <= 5
 0 <= xt2_1 <= 5
 0 <= xt2_2 <= 5
 0 <= xt2_3 <= 5
 0 <= xt2_4 <= 5
 0 <= xt2_5 <= 5
 0 <= xt2_6 <= 5
 0 <= xt2_7 <= 5
 0 <= xt2_8 <= 5
 0 <= xt2_9 <= 5
 0 <= xt2_10 <= 5
 0 <= xt2_11 <= 5
 0 <= xt2_12 <= 5
 0 <= xt2_13 <= 5
 0 <= xt2_14 <= 5
 0 <= xt2_15 <= 5
 0 <= xt2_16 <= 5
 0 <= xt2_17 <= 5
 0 <= xt2_18 <= 5
 0 <= xt2_19 <= 5
 0 <= xt2_20 <= 5
 0 <= xt2_21 <= 5
 0 <= xt2_22 <= 5
 0 <= xt2_23 <= 5
 0 <= xt2_24 <= 5
 0 <= xt2_25 <= 5
 0 <= xt2_26 <= 5
 0 <= xt2_27 <= 5
 0 <= xt2_28 <= 5
 0 <= xt2_29 <= 5
 0 <= xt2_30 <= 5
 0 <= xt2_31 <= 5
 0 <= xt2_32 <= 5
 0 <= xt2_33 <= 5
 0 <= xt2_34 <= 5
 0 <= xt2_35 <= 5
 0 <= xt2_36 <= 5
 0 <= xt2_37 <= 5
 0 <= xt2_38 <= 5
 0 <= xt2_39 <= 5
 0 <= xt2_40 <= 5
 0 <= xt2_41 <= 5
 0 <= xt2_42 <= 5
 0 <= xt2_43 <= 5
 0 <= xt2_44 <= 5
 0 <= xt2_45 <= 5
 0 <= xt2_46 <= 5
 0 <= xt2_47 <= 5
 0 <= xt2_48 <= 5
 0 <= xt2_49 <= 5
 0 <= xt2_50 <= 5
 0 <= xt2_51 <= 5
 0 <= xt2_52 <= 5
 0 <= xt2_53 <= 5
 0 <= xt2_54 <= 5
 0 <= xt2_55 <= 5
 0 <= xt2_56 <= 5
 0 <= xt2_57 <= 5
 0 <= xt2_58 <= 5
 0 <= xt2_59 <= 5
 0 <= xt2_60 <= 5
 0 <= xt2_61 <= 5
 0 <= xt2_62 <= 5
 0 <= xt2_63 <= 5
 0 <= xt2_64 <= 5
 0 <= xt2_65 <= 5
 0 <= xt2_66 <= 5
 0 <= xt2_67 <= 5
 0 <= xt2_68 <= 5
 0 <= xt2_69 <= 5
 0 <= xp0_0 <= 10
 0 <= xp0_1 <= 10
 0 <= xp0_2 <= 10
 0 <= xp0_3 <= 10
 0 <= xp0_4 <= 10
 0 <= xp0_5 <= 10
 0 <= xp0_6 <= 10
 0 <= xp0_7 <= 10
 0 <= xp0_8 <= 10
 0 <= xp0_9 <= 10
 0 <= xp0_10 <= 10
 0 <= xp0_11 <= 10
 0 <= xp0_12 <= 10
 0 <= xp0_13 <= 10
 0 <= xp0_14 <= 10
 0 <= xp0_15 <= 10
 0 <= xp0_16 <= 10
 0 <= xp0_17 <= 10
 0 <= xp0_18 <= 10
 0 <= xp0_19 <= 10
 0 <= xp0_20 <= 10
 0 <= xp0_21 <= 10
 0 <= xp0_22 <= 10
 0 <= xp0_23 <= 10
 0 <= xp0_24 <= 10
 0 <= xp0_25 <= 10
 0 <= xp0_26 <= 10
 0 <= xp0_27 <= 10
 0 <= xp0_28 <= 10
 0 <= xp0_29 <= 10
 0 <= xp0_30 <= 10
 0 <= xp0_31 <= 10
 0 <= xp0_32 <= 10
 0 <= xp0_33 <= 10
 0 <= xp0_34 <= 10
 0 <= xp0_35 <= 10
 0 <= xp0_36 <= 10
 0 <= xp0_37 <= 10
 0 <= xp0_38 <= 10
 0 <= xp0_39 <= 10
 0 <= xp0_40 <= 10
 0 <= xp0_41 <= 10
 0 <= xp0_42 <= 10
 0 <= xp0_43 <= 10
 0 <= xp0_44 <= 10
 0 <= xp0_45 <= 10
 0 <= xp0_46 <= 10
 0 <= xp0_47 <= 10
 0 <= xp0_48 <= 10
 0 <= xp0_49 <= 10
 0 <= xp0_50 <= 10
 0 <= xp0_51 <= 10
 0 <= xp0_52 <= 10
 0 <= xp0_53 <= 10
 0 <= xp0_54 <= 10
 0 <= xp0_55 <= 10
 0 <= xp0_56 <= 10
 0 <= xp0_57 <= 10
 0 <= xp0_58 <= 10
 0 <= xp0_59 <= 10
 0 <= xp0_60 <= 10
 0 <= xp0_61 <= 10
 0 <= xp0_62 <= 10
 0 <= xp0_63 <= 10
 0 <= xp0_64 <= 10
 0 <= xp0_65 <= 10
 0 <= xp0_66 <= 10
 0 <= xp0_67 <= 10
 0 <= xp0_68 <= 10
 0 <= xp0_69 <= 10
 0 <= xp1_0 <= 10
 0 <= xp1_1 <= 10
 0 <= xp1_2 <= 10
 0 <= xp1_3 <= 10
 0 <= xp1_4 <= 10
 0 <= xp1_5 <= 10
 0 <= xp1_6 <= 10
 0 <= xp1_7 <= 10
 0 <= xp1_8 <= 10
 0 <= xp1_9 <= 10
 0 <= xp1_10 <= 10
 0 <= xp1_11 <= 10
 0 <= xp1_12 <= 10
 0 <= xp1_13 <= 10
 0 <= xp1_14 <= 10
 0 <= xp1_15 <= 10
 0 <= xp1_16 <= 10
 0 <= xp1_17 <= 10
 0 <= xp1_18 <= 10
 0 <= xp1_19 <= 10
 0 <= xp1_20 <= 10
 0 <= xp1_21 <= 10
 0 <= xp1_22 <= 10
 0 <= xp1_23 <= 10
 0 <= xp1_24 <= 10
 0 <= xp1_25 <= 10
 0 <= xp1_26 <= 10
 0 <= xp1_27 <= 10
 0 <= xp1_28 <= 10
 0 <= xp1_29 <= 10
 0 <= xp1_30 <= 10
 0 <= xp1_31 <= 10
 0 <= xp1_32 <= 10
 0 <= xp1_33 <= 10
 0 <= xp1_34 <= 10
 0 <= xp1_35 <= 10
 0 <= xp1_36 <= 10
 0 <= xp1_37 <= 10
 0 <= xp1_38 <= 10
 0 <= xp1_39 <= 10
 0 <= xp1_40 <= 10
 0 <= xp1_41 <= 10
 0 <= xp1_42 <= 10
 0 <= xp1_43 <= 10
 0 <= xp1_44 <= 10
 0 <= xp1_45 <= 10
 0 <= xp1_46 <= 10
 0 <= xp1_47 <= 10
 0 <= xp1_48 <= 10
 0 <= xp1_49 <= 10
 0 <= xp1_50 <= 10
 0 <= xp1_51 <= 10
 0 <= xp1_52 <= 10
 0 <= xp1_53 <= 10
 0 <= xp1_54 <= 10
 0 <= xp1_55 <= 10
 0 <= xp1_56 <= 10
 0 <= xp1_57 <= 10
 0 <= xp1_58 <= 10
 0 <= xp1_59 <= 10
 0 <= xp1_60 <= 10
 0 <= xp1_61 <= 10
 0 <= xp1_62 <= 10
 0 <= xp1_63 <= 10
 0 <= xp1_64 <= 10
 0 <= xp1_65 <= 10
 0 <= xp1_66 <= 10
 0 <= xp1_67 <= 10
 0 <= xp1_68 <= 10
 0 <= xp1_69 <= 10
Binary
 xn_0
 xn_1
 xn_2
 xn_3
 xn_4
 xn_5
 xn_6
 xn_7
 xn_8
 xn_9
 y1
General
 xt1_0
 xt1_1
 xt1_2
 xt1_3
 xt1_4
 xt1_5
 xt1_6
 xt1_7
 xt1_8
 xt1_9
 xt1_10
 xt1_11
 xt1_12
 xt1_13
 xt1_14
 xt1_15
 xt1_16
 xt1_17
 xt1_18
 xt1_19
 xt1_20
 xt1_21
 xt1_22
 xt1_23
 xt1_24
 xt1_25
 xt1_26
 xt1_27
 xt1_28
 xt1_29
 xt1_30
 xt1_31
 xt1_32
 xt1_33
 xt1_34
 xt1_35
 xt1_36
 xt1_37
 xt1_38
 xt1_39
 xt1_40
 xt1_41
 xt1_42
 xt1_43
 xt1_44
 xt1_45
 xt1_46
 xt1_47
 xt1_48
 xt1_49
 xt1_50
 xt1_51
 xt1_52
 xt1_53
 xt1_54
 xt1_55
 xt1_56
 xt1_57
 xt1_58
 xt1_59
 xt1_60
 xt1_61
 xt1_62
 xt1_63
 xt1_64
 xt1_65
 xt1_66
 xt1_67
 xt1_68
 xt1_69
 xt2_0
 xt2_1
 xt2_2
 xt2_3
 xt2_4
 xt2_5
 xt2_6
 xt2_7
 xt2_8
 xt2_9
 xt2_10
 xt2_11
 xt2_12
 xt2_13
 xt2_14
 xt2_15
 xt2_16
 xt2_17
 xt2_18
 xt2_19
 xt2_20
 xt2_21
 xt2_22
 xt2_23
 xt2_24
 xt2_25
 xt2_26
 xt2_27
 xt2_28
 xt2_29
 xt2_30
 xt2_31
 xt2_32
 xt2_33
 xt2_34
 xt2_35
 xt2_36
 xt2_37
 xt2_38
 xt2_39
 xt2_40
 xt2_41
 xt2_42
 xt2_43
 xt2_44
 xt2_45
 xt2_46
 xt2_47
 xt2_48
 xt2_49
 xt2_50
 xt2_51
 xt2_52
 xt2_53
 xt2_54
 xt2_55
 xt2_56
 xt2_57
 xt2_58
 xt2_59
 xt2_60
 xt2_61
 xt2_62
 xt2_63
 xt2_64
 xt2_65
 xt2_66
 xt2_67
 xt2_68
 xt2_69
End
