Minimize
 obj: -100.0 y0 + 1.0 x0_0 + 2.0 x0_1 + 3.0 x0_2 + 4.0 x0_3 + 5.0 x0_4 + 6.0 x0_5 + 7.0 x0_6 + 8.0 x0_7 + 9.0 x0_8 + 10.0 x0_9 + 11.0 x0_10 + 12.0 x0_11 + 13.0 x0_12 + 14.0 x0_13 + 15.0 x0_14 + 16.0 x0_15 + 17.0 x0_16 + 18.0 x0_17 + 19.0 x0_18 + 20.0 x0_19 + -100.0 y1 + 1.0 x1_0 + 2.0 x1_1 + 3.0 x1_2 + 4.0 x1_3 + 5.0 x1_4 + 6.0 x1_5 + 7.0 x1_6 + 8.0 x1_7 + 9.0 x1_8 + 10.0 x1_9 + 11.0 x1_10 + 12.0 x1_11 + 13.0 x1_12 + 14.0 x1_13 + 15.0 x1_14 + 16.0 x1_15 + 17.0 x1_16 + 18.0 x1_17 + 19.0 x1_18 + 20.0 x1_19 + -100.0 y2 + 1.0 x2_0 + 2.0 x2_1 + 3.0 x2_2 + 4.0 x2_3 + 5.0 x2_4 + 6.0 x2_5 + 7.0 x2_6 + 8.0 x2_7 + 9.0 x2_8 + 10.0 x2_9 + 11.0 x2_10 + 12.0 x2_11 + 13.0 x2_12 + 14.0 x2_13 + 15.0 x2_14 + 16.0 x2_15 + 17.0 x2_16 + 18.0 x2_17 + 19.0 x2_18 + 20.0 x2_19 + -100.0 y3 + 1.0 x3_0 + 2.0 x3_1 + 3.0 x3_2 + 4.0 x3_3 + 5.0 x3_4 + 6.0 x3_5 + 7.0 x3_6 + 8.0 x3_7 + 9.0 x3_8 + 10.0 x3_9 + 11.0 x3_10 + 12.0 x3_11 + 13.0 x3_12 + 14.0 x3_13 + 15.0 x3_14 + 16.0 x3_15 + 17.0 x3_16 + 18.0 x3_17 + 19.0 x3_18 + 20.0 x3_19 + -100.0 y4 + 1.0 x4_0 + 2.0 x4_1 + 3.0 x4_2 + 4.0 x4_3 + 5.0 x4_4 + 6.0 x4_5 + 7.0 x4_6 + 8.0 x4_7 + 9.0 x4_8 + 10.0 x4_9 + 11.0 x4_10 + 12.0 x4_11 + 13.0 x4_12 + 14.0 x4_13 + 15.0 x4_14 + 16.0 x4_15 + 17.0 x4_16 + 18.0 x4_17 + 19.0 x4_18 + 20.0 x4_19
Subject To
 eq0: 1 x0_0 + 1 x0_1 + 1 x0_2 + 1 x0_3 + 1 x0_4 + 1 x0_5 + 1 x0_6 + 1 x0_7 + 1 x0_8 + 1 x0_9 + 1 x0_10 + 1 x0_11 + 1 x0_12 + 1 x0_13 + 1 x0_14 + 1 x0_15 + 1 x0_16 + 1 x0_17 + 1 x0_18 + 1 x0_19 + -1.0 y0 = 12.0
 eq1: 1 x1_0 + 1 x1_1 + 1 x1_2 + 1 x1_3 + 1 x1_4 + 1 x1_5 + 1 x1_6 + 1 x1_7 + 1 x1_8 + 1 x1_9 + 1 x1_10 + 1 x1_11 + 1 x1_12 + 1 x1_13 + 1 x1_14 + 1 x1_15 + 1 x1_16 + 1 x1_17 + 1 x1_18 + 1 x1_19 + -1.0 y1 = 12.0
 eq2: 1 x2_0 + 1 x2_1 + 1 x2_2 + 1 x2_3 + 1 x2_4 + 1 x2_5 + 1 x2_6 + 1 x2_7 + 1 x2_8 + 1 x2_9 + 1 x2_10 + 1 x2_11 + 1 x2_12 + 1 x2_13 + 1 x2_14 + 1 x2_15 + 1 x2_16 + 1 x2_17 + 1 x2_18 + 1 x2_19 + -1.0 y2 = 12.0
 eq3: 1 x3_0 + 1 x3_1 + 1 x3_2 + 1 x3_3 + 1 x3_4 + 1 x3_5 + 1 x3_6 + 1 x3_7 + 1 x3_8 + 1 x3_9 + 1 x3_10 + 1 x3_11 + 1 x3_12 + 1 x3_13 + 1 x3_14 + 1 x3_15 + 1 x3_16 + 1 x3_17 + 1 x3_18 + 1 x3_19 + -1.0 y3 = 12.0
 eq4: 1 x4_0 + 1 x4_1 + 1 x4_2 + 1 x4_3 + 1 x4_4 + 1 x4_5 + 1 x4_6 + 1 x4_7 + 1 x4_8 + 1 x4_9 + 1 x4_10 + 1 x4_11 + 1 x4_12 + 1 x4_13 + 1 x4_14 + 1 x4_15 + 1 x4_16 + 1 x4_17 + 1 x4_18 + 1 x4_19 + -1.0 y4 = 12.0
 ym: 1.0 y0 + 1.0 y1 + 1.0 y2 + 1.0 y3 + 1.0 y4 <= 2.0
Bounds
 0 <= y0 <= 1
 0 <= x0_0 <= 1
 0 <= x0_1 <= 1
 0 <= x0_2 <= 1
 0 <= x0_3 <= 1
 0 <= x0_4 <= 1
 0 <= x0_5 <= 1
 0 <= x0_6 <= 1
 0 <= x0_7 <= 1
 0 <= x0_8 <= 1
 0 <= x0_9 <= 1
 0 <= x0_10 <= 1
 0 <= x0_11 <= 1
 0 <= x0_12 <= 1
 0 <= x0_13 <= 1
 0 <= x0_14 <= 1
 0 <= x0_15 <= 1
 0 <= x0_16 <= 1
 0 <= x0_17 <= 1
 0 <= x0_18 <= 1
 0 <= x0_19 <= 1
 0 <= y1 <= 1
 0 <= x1_0 <= 1
 0 <= x1_1 <= 1
 0 <= x1_2 <= 1
 0 <= x1_3 <= 1
 0 <= x1_4 <= 1
 0 <= x1_5 <= 1
 0 <= x1_6 <= 1
 0 <= x1_7 <= 1
 0 <= x1_8 <= 1
 0 <= x1_9 <= 1
 0 <= x1_10 <= 1
 0 <= x1_11 <= 1
 0 <= x1_12 <= 1
 0 <= x1_13 <= 1
 0 <= x1_14 <= 1
 0 <= x1_15 <= 1
 0 <= x1_16 <= 1
 0 <= x1_17 <= 1
 0 <= x1_18 <= 1
 0 <= x1_19 <= 1
 0 <= y2 <= 1
 0 <= x2_0 <= 1
 0 <= x2_1 <= 1
 0 <= x2_2 <= 1
 0 <= x2_3 <= 1
 0 <= x2_4 <= 1
 0 <= x2_5 <= 1
 0 <= x2_6 <= 1
 0 <= x2_7 <= 1
 0 <= x2_8 <= 1
 0 <= x2_9 <= 1
 0 <= x2_10 <= 1
 0 <= x2_11 <= 1
 0 <= x2_12 <= 1
 0 <= x2_13 <= 1
 0 <= x2_14 <= 1
 0 <= x2_15 <= 1
 0 <= x2_16 <= 1
 0 <= x2_17 <= 1
 0 <= x2_18 <= 1
 0 <= x2_19 <= 1
 0 <= y3 <= 1
 0 <= x3_0 <= 1
 0 <= x3_1 <= 1
 0 <= x3_2 <= 1
 0 <= x3_3 <= 1
 0 <= x3_4 <= 1
 0 <= x3_5 <= 1
 0 <= x3_6 <= 1
 0 <= x3_7 <= 1
 0 <= x3_8 <= 1
 0 <= x3_9 <= 1
 0 <= x3_10 <= 1
 0 <= x3_11 <= 1
 0 <= x3_12 <= 1
 0 <= x3_13 <= 1
 0 <= x3_14 <= 1
 0 <= x3_15 <= 1
 0 <= x3_16 <= 1
 0 <= x3_17 <= 1
 0 <= x3_18 <= 1
 0 <= x3_19 <= 1
 0 <= y4 <= 1
 0 <= x4_0 <= 1
 0 <= x4_1 <= 1
 0 <= x4_2 <= 1
 0 <= x4_3 <= 1
 0 <= x4_4 <= 1
 0 <= x4_5 <= 1
 0 <= x4_6 <= 1
 0 <= x4_7 <= 1
 0 <= x4_8 <= 1
 0 <= x4_9 <= 1
 0 <= x4_10 <= 1
 0 <= x4_11 <= 1
 0 <= x4_12 <= 1
 0 <= x4_13 <= 1
 0 <= x4_14 <= 1
 0 <= x4_15 <= 1
 0 <= x4_16 <= 1
 0 <= x4_17 <= 1
 0 <= x4_18 <= 1
 0 <= x4_19 <= 1
Binary
 y0
 x0_0
 x0_1
 x0_2
 x0_3
 x0_4
 x0_5
 x0_6
 x0_7
 x0_8
 x0_9
 x0_10
 x0_11
 x0_12
 x0_13
 x0_14
 x0_15
 x0_16
 x0_17
 x0_18
 x0_19
 y1
 x1_0
 x1_1
 x1_2
 x1_3
 x1_4
 x1_5
 x1_6
 x1_7
 x1_8
 x1_9
 x1_10
 x1_11
 x1_12
 x1_13
 x1_14
 x1_15
 x1_16
 x1_17
 x1_18
 x1_19
 y2
 x2_0
 x2_1
 x2_2
 x2_3
 x2_4
 x2_5
 x2_6
 x2_7
 x2_8
 x2_9
 x2_10
 x2_11
 x2_12
 x2_13
 x2_14
 x2_15
 x2_16
 x2_17
 x2_18
 x2_19
 y3
 x3_0
 x3_1
 x3_2
 x3_3
 x3_4
 x3_5
 x3_6
 x3_7
 x3_8
 x3_9
 x3_10
 x3_11
 x3_12
 x3_13
 x3_14
 x3_15
 x3_16
 x3_17
 x3_18
 x3_19
 y4
 x4_0
 x4_1
 x4_2
 x4_3
 x4_4
 x4_5
 x4_6
 x4_7
 x4_8
 x4_9
 x4_10
 x4_11
 x4_12
 x4_13
 x4_14
 x4_15
 x4_16
 x4_17
 x4_18
 x4_19
End
